6491
0 1 0 0 0 0 0 0 0 0 0 1 1 1 1 1 1 0 1 1 
12 18 11 11 15 18 16 13 16 1 11 18 19 19 19 15 15 13 14 14 14 11 11 11 12 12 11 16 16 13 1 19 19 18 14 19 19 15 1 1 1 12 13 16 11 14 18 19 15 15 16 1 1 13 13 11 12 14 14 14 11 11 11 11 11 13 16 15 19 15 18 18 19 19 19 18 18 18 19 19 